9322
10059
10559
10838
11066
11181
11298
11384
11466
11536
11616
11694
11751
11817
11875
11921
11950
11964
11976
11983
12000
12011
12016
12019
12026
12036
12047
12058
12071
12095
12126
12156
12189
12215
12223
12236
12245
12254
12266
12270
12277
12287
12295
12300
12300
12300
12301
12301
12301
12302
12304
12305
12306
12309
12312
12316
12319
12319
12319
12319
12319
12319
12319
12319
12319
12319
12319
12319
12319
12319
12319
12319
12319
12319
12319
12319
12319
12319
12319
12319
12319
12319
12319
12319
12319
12319
12319
12319
12319
12319
12319
12319
12319
12319
12319
12319
12319
12319
12319
